20 965
520 7 440 7 284 7 88 12
529 7 485 7 272 7 90 9 798 11 593 18
529 7 485 7 272 7 90 9 798 11 593 18
528 7 482 7 301 7 114 9 881 11 697 15 580 22
525 7 482 7 394 7 212 9 29 11 822 15 623 21
525 7 502 7 412 7 255 9 80 11 874 18
525 7 502 7 412 7 255 9 80 11 874 18
525 7 477 7 391 7 243 9 78 11 916 15
519 7 499 7 409 7 253 9 145 16
529 7 483 7 293 10
529 7 483 7 293 10
529 7 485 7 295 10
528 7 484 7 368 7 122 9 895 13
528 7 484 7 368 7 122 9 895 13
525 7 482 7 367 7 213 9 32 11 824 18
525 7 482 7 367 7 213 9 32 11 824 18
528 7 482 7 366 7 179 12
528 7 482 7 366 7 179 12
535 8 491 8 398 9 231 10 100 15
525 7 479 7 356 7 107 9 6 11 781 15 614 22
